100
27634

865 459
395 94
777 83
912 328
431 897
42 521
266 956
989 502
524 112
498 309
415 565
941 299
803 724
850 128
311 561
992 341
489 835
367 945
598 554
914 209
930 987
224 819
517 618
143 561
289 602
144 295
774 456
98 94
634 611
819 818
257 395
932 325
546 590
723 248
830 298
617 189
924 194
151 842
318 192
102 34
748 628
76 673
921 267
871 488
701 71
339 92
484 696
574 776
104 134
363 898
445 154
324 946
626 40
656 863
935 83
210 920
990 717
566 946
489 850
454 554
887 700
534 401
267 858
64 723
825 538
941 283
562 535
938 832
15 242
96 870
737 221
861 917
409 696
728 604
845 846
804 973
685 430
641 594
2 282
627 462
506 505
848 677
889 657
342 718
250 939
748 813
334 366
721 85
892 333
65 628
196 119
940 499
582 602
228 646
245 344
823 866
991 195
146 249
823 17
557 750
